[[13, 54, 19, 35, 53, 14, 59, 11, 66, 65, 38, 10, 58, 72, 31, 39, 9, 25, 55, 18, 50], [32, 44, 40, 12, 17, 51, 3, 16, 24, 49, 63, 23, 56, 41, 43, 42, 64, 22, 61, 28, 62, 73, 33, 6, 68, 2, 30, 74], [48, 21, 47, 36, 69, 71, 60, 70, 20, 37, 15, 57, 5, 29, 27, 45, 4, 75, 76, 26, 67, 7, 34, 46, 8, 52]]